Academic license - for non-commercial use only
Optimize a model with 526 rows, 301 columns and 1824 nonzeros
Variable types: 0 continuous, 301 integer (301 binary)
Coefficient statistics:
  Matrix range     [1e+00, 1e+00]
  Objective range  [5e+01, 5e+02]
  Bounds range     [1e+00, 1e+00]
  RHS range        [1e+00, 7e+00]
Found heuristic solution: objective 14637.000000
Presolve time: 0.01s
Presolved: 526 rows, 301 columns, 1824 nonzeros
Variable types: 0 continuous, 301 integer (301 binary)

Root relaxation: objective 0.000000e+00, 324 iterations, 0.02 seconds

    Nodes    |    Current Node    |     Objective Bounds      |     Work
 Expl Unexpl |  Obj  Depth IntInf | Incumbent    BestBd   Gap | It/Node Time

     0     0    0.00000    0   90 14637.0000    0.00000   100%     -    0s
H    0     0                    8640.0000000    0.00000   100%     -    0s
H    0     0                    7163.0000000    0.00000   100%     -    0s
     0     0    0.00000    0   90 7163.00000    0.00000   100%     -    0s
     0     0  121.63265    0  239 7163.00000  121.63265  98.3%     -    0s
     0     0  753.52381    0  212 7163.00000  753.52381  89.5%     -    0s
     0     0  790.86395    0  215 7163.00000  790.86395  89.0%     -    0s
H    0     0                    6629.0000000  790.86395  88.1%     -    0s
     0     0  791.76517    0  224 6629.00000  791.76517  88.1%     -    0s
     0     0  804.88889    0  213 6629.00000  804.88889  87.9%     -    0s
H    0     0                    6262.0000000  804.88889  87.1%     -    0s
     0     0  806.47619    0  213 6262.00000  806.47619  87.1%     -    0s
     0     0  818.00000    0  223 6262.00000  818.00000  86.9%     -    0s
     0     0  822.00000    0  227 6262.00000  822.00000  86.9%     -    0s
     0     0  822.85714    0   93 6262.00000  822.85714  86.9%     -    0s
     0     0  822.85714    0   93 6262.00000  822.85714  86.9%     -    0s
     0     0  828.01681    0  223 6262.00000  828.01681  86.8%     -    0s
H    0     0                    6175.0000000  828.01681  86.6%     -    0s
     0     0  828.01681    0  227 6175.00000  828.01681  86.6%     -    0s
     0     0  840.28571    0   94 6175.00000  840.28571  86.4%     -    0s
     0     0  842.00000    0   97 6175.00000  842.00000  86.4%     -    0s
     0     0  842.00000    0   97 6175.00000  842.00000  86.4%     -    0s
     0     0  842.00000    0   97 6175.00000  842.00000  86.4%     -    0s
     0     0  842.00000    0   97 6175.00000  842.00000  86.4%     -    0s
H    0     2                    5573.0000000  842.00000  84.9%     -    0s
     0     2  842.00000    0   97 5573.00000  842.00000  84.9%     -    0s
H   19    21                    3720.0000000  849.65662  77.2%  82.2    0s
H   21    23                    3331.0000000  849.65662  74.5%  79.5    0s
H   29    28                    2942.0000000  849.65662  71.1%  73.7    0s
H   98    62                    2904.0000000 1059.42451  63.5%  59.3    0s
*  122    81              14    2789.0000000 1065.80952  61.8%  57.2    1s
H  208    89                    2484.0000000 1138.98136  54.1%  49.6    1s
*  913   131               9    2374.0000000 1630.37805  31.3%  42.2    3s

Cutting planes:
  Cover: 1
  Clique: 12
  MIR: 5
  Inf proof: 2
  Zero half: 4
  Mod-K: 4

Explored 1520 nodes (63624 simplex iterations) in 4.98 seconds
Thread count was 4 (of 4 available processors)

Solution count 10: 2374 2484 2789 ... 6262

Optimal solution found (tolerance 1.00e-04)
Best objective 2.374000000000e+03, best bound 2.374000000000e+03, gap 0.0000%
===============================
Solucão ótima encontrada.
Número de nós explorados: 1520
Melhor limitante dual: 2374.00
Melhor limitante primal: 2374.00
Gap de otimalidade: 0.00
Tempo de execucão: 4.98
